60
1 0 15
3 0 17
3 1 16
3 2 12
4 0 4
4 1 11
4 2 3
5 0 18
5 1 16
5 2 19
5 4 11
6 0 14
6 2 14
6 3 5
7 3 6
7 4 16
7 6 17
8 0 3
8 1 8
8 2 13
8 6 12
8 7 17
9 0 9
9 2 16
9 3 9
9 4 13
9 6 8
9 7 16
9 8 16
10 1 16
10 2 11
10 3 8
10 4 5
10 5 7
10 7 17
10 9 11
11 1 14
11 4 9
11 5 4
11 7 2
11 9 7
12 1 11
12 3 7
12 5 1
12 6 14
12 7 13
12 8 14
12 10 6
12 11 7
13 1 16
13 2 19
13 3 3
13 5 6
13 6 7
13 7 10
13 9 13
13 11 13
13 12 19
14 1 7
14 4 6
14 6 4
14 9 2
14 12 15
14 13 8
15 0 3
15 1 12
15 2 8
15 3 5
15 4 6
15 6 5
15 7 14
15 8 10
15 9 11
15 10 20
15 13 15
15 14 13
16 0 15
16 1 10
16 5 10
16 6 13
16 8 3
16 9 16
16 10 3
16 11 19
16 12 5
16 14 11
17 0 10
17 2 13
17 3 2
17 4 5
17 6 4
17 8 7
17 9 8
17 10 5
17 11 13
17 14 6
18 2 9
18 3 5
18 5 3
18 6 9
18 8 2
18 9 20
18 11 11
18 12 9
18 16 16
18 17 15
19 0 11
19 2 6
19 3 20
19 5 2
19 10 8
19 14 19
19 16 15
19 17 8
19 18 10
20 0 20
20 3 11
20 4 15
20 7 3
20 8 20
20 10 9
20 12 2
20 13 17
20 14 13
20 15 18
20 16 9
20 17 18
20 18 19
20 19 1
21 2 14
21 3 14
21 4 8
21 5 7
21 6 17
21 9 5
21 11 10
21 13 17
21 14 8
21 15 9
21 16 4
21 18 17
21 20 3
22 0 16
22 1 2
22 3 16
22 4 10
22 9 19
22 11 9
22 13 12
22 14 17
22 15 10
22 17 17
22 18 10
22 19 16
22 21 20
23 4 3
23 7 13
23 8 19
23 9 11
23 12 17
23 15 9
23 16 6
23 17 3
23 18 19
23 19 11
23 20 11
23 21 3
23 22 19
24 0 12
24 1 19
24 3 2
24 9 14
24 10 1
24 11 2
24 12 11
24 13 3
24 16 19
24 18 7
24 19 19
24 20 13
24 21 1
24 22 6
25 1 7
25 2 10
25 5 12
25 6 15
25 7 2
25 8 20
25 9 13
25 10 13
25 11 16
25 12 5
25 13 10
25 16 17
25 17 11
25 18 4
25 20 9
25 21 13
25 22 3
25 23 17
25 24 18
26 0 11
26 1 3
26 2 20
26 3 20
26 7 15
26 8 2
26 12 14
26 14 10
26 15 14
26 16 13
26 17 1
26 18 12
26 19 4
26 20 12
26 21 20
26 22 18
26 23 6
26 24 5
26 25 1
27 1 6
27 3 9
27 4 11
27 5 4
27 8 4
27 9 5
27 11 9
27 12 17
27 13 4
27 14 18
27 18 4
27 19 19
27 20 20
27 21 3
27 23 13
27 24 14
27 26 7
28 1 4
28 4 14
28 5 20
28 8 2
28 9 17
28 12 19
28 16 1
28 20 8
28 21 12
28 22 11
28 23 5
28 24 16
28 25 5
28 26 14
29 1 12
29 2 15
29 4 2
29 5 12
29 7 18
29 8 5
29 10 18
29 12 2
29 13 3
29 14 1
29 16 20
29 19 7
29 20 12
29 22 20
29 23 7
29 25 7
29 26 20
29 27 13
29 28 13
30 0 12
30 1 1
30 3 1
30 4 20
30 7 7
30 8 15
30 9 15
30 10 20
30 11 19
30 13 10
30 15 12
30 16 16
30 19 14
30 20 10
30 22 11
30 23 20
30 25 5
30 27 10
30 29 5
31 2 7
31 3 16
31 6 5
31 7 20
31 8 4
31 9 8
31 12 16
31 13 19
31 15 13
31 16 15
31 17 8
31 18 15
31 20 20
31 21 15
31 22 12
31 23 5
31 24 2
31 25 7
31 26 19
31 27 18
32 0 9
32 2 16
32 5 11
32 7 5
32 10 6
32 11 11
32 12 10
32 13 2
32 15 3
32 16 20
32 17 14
32 18 12
32 19 9
32 20 13
32 21 8
32 22 9
32 23 1
32 28 7
32 30 1
32 31 3
33 0 18
33 4 7
33 5 18
33 6 13
33 8 18
33 10 20
33 11 20
33 13 18
33 20 7
33 24 3
33 25 20
33 27 12
33 28 18
33 29 14
33 30 20
34 1 12
34 2 12
34 4 1
34 5 9
34 6 18
34 7 19
34 9 4
34 10 14
34 11 3
34 13 6
34 14 16
34 18 12
34 19 17
34 21 18
34 22 17
34 25 1
34 27 4
34 29 8
34 30 3
35 0 14
35 3 20
35 4 2
35 6 7
35 10 20
35 11 1
35 13 3
35 14 16
35 15 14
35 16 13
35 17 6
35 18 16
35 19 10
35 21 19
35 23 18
35 24 2
35 27 18
35 28 1
35 29 3
35 30 4
35 31 7
35 32 14
35 33 3
35 34 7
36 1 18
36 3 19
36 5 11
36 6 17
36 7 9
36 8 9
36 10 10
36 11 14
36 12 5
36 13 15
36 15 10
36 16 5
36 17 18
36 19 9
36 20 5
36 24 3
36 27 4
36 29 7
36 30 10
36 31 11
36 34 20
37 2 7
37 5 3
37 6 15
37 7 4
37 9 15
37 10 18
37 11 13
37 12 11
37 14 11
37 15 14
37 17 19
37 18 3
37 19 7
37 23 2
37 24 4
37 25 19
37 26 17
37 27 18
37 28 4
37 29 1
37 31 11
37 32 11
37 33 7
37 34 16
37 35 19
38 2 8
38 3 17
38 6 6
38 8 18
38 9 8
38 10 10
38 11 14
38 12 16
38 13 20
38 14 18
38 15 12
38 17 10
38 19 11
38 20 12
38 23 6
38 25 1
38 26 2
38 28 7
38 31 18
38 33 16
38 34 16
38 35 6
39 1 11
39 2 3
39 5 5
39 6 3
39 7 8
39 8 17
39 9 14
39 10 12
39 12 12
39 15 18
39 17 5
39 18 16
39 19 13
39 20 19
39 23 10
39 24 11
39 25 1
39 26 7
39 27 12
39 29 7
39 30 13
39 31 13
39 32 7
39 34 11
39 35 10
39 36 13
39 37 11
39 38 2
40 1 12
40 3 10
40 4 6
40 6 7
40 8 20
40 11 15
40 16 18
40 17 2
40 18 18
40 19 18
40 21 10
40 24 2
40 25 15
40 28 8
40 29 14
40 33 2
40 34 3
40 35 20
40 37 11
41 0 14
41 1 6
41 4 11
41 5 9
41 6 4
41 7 16
41 8 15
41 10 4
41 11 10
41 13 10
41 14 5
41 15 3
41 16 17
41 19 11
41 21 8
41 22 20
41 23 17
41 24 11
41 25 8
41 32 13
41 33 7
41 35 7
41 37 2
42 4 1
42 5 6
42 7 5
42 8 5
42 9 7
42 11 6
42 16 10
42 18 10
42 21 3
42 22 14
42 23 7
42 24 14
42 26 4
42 27 7
42 28 16
42 30 19
42 33 13
42 34 16
42 35 5
42 36 10
42 37 2
42 40 15
42 41 14
43 0 2
43 2 9
43 3 16
43 5 13
43 6 1
43 7 6
43 8 18
43 9 11
43 13 1
43 15 14
43 16 11
43 17 10
43 19 10
43 22 2
43 23 12
43 27 12
43 28 5
43 29 18
43 31 18
43 32 12
43 33 2
43 34 3
43 35 9
44 1 8
44 5 12
44 7 5
44 8 15
44 10 11
44 11 7
44 13 15
44 14 15
44 15 19
44 16 16
44 17 15
44 18 13
44 20 3
44 21 20
44 23 13
44 24 2
44 25 17
44 28 11
44 31 6
44 32 19
44 36 14
44 39 7
44 43 8
45 0 11
45 1 14
45 6 7
45 8 12
45 10 19
45 11 16
45 13 5
45 14 19
45 15 9
45 16 5
45 17 7
45 21 20
45 22 10
45 24 18
45 25 11
45 27 9
45 28 10
45 32 13
45 33 5
45 36 16
45 37 17
45 38 20
45 39 6
45 40 17
45 41 6
45 42 12
45 43 19
46 0 2
46 1 5
46 2 2
46 4 4
46 5 5
46 7 14
46 8 5
46 9 7
46 11 10
46 13 16
46 15 3
46 16 4
46 17 17
46 18 5
46 20 10
46 21 17
46 23 2
46 28 6
46 29 10
46 30 2
46 31 11
46 32 5
46 33 11
46 35 14
46 37 1
46 38 14
46 42 18
46 43 10
46 45 1
47 1 9
47 3 6
47 4 12
47 5 20
47 6 1
47 8 7
47 9 13
47 10 20
47 12 17
47 14 6
47 16 18
47 18 16
47 20 3
47 21 6
47 24 7
47 25 7
47 28 18
47 29 6
47 30 9
47 31 15
47 34 20
47 35 11
47 37 1
47 38 12
47 39 16
47 40 17
47 41 2
47 45 16
47 46 10
48 0 6
48 1 4
48 2 3
48 4 15
48 6 3
48 12 7
48 13 14
48 14 4
48 15 10
48 16 10
48 17 19
48 18 7
48 19 12
48 20 17
48 24 18
48 26 9
48 27 4
48 28 3
48 30 8
48 31 13
48 33 9
48 38 12
48 39 7
48 40 2
48 43 7
48 47 20
49 0 12
49 1 10
49 4 3
49 6 15
49 8 6
49 9 17
49 10 8
49 15 6
49 18 14
49 19 5
49 20 17
49 23 19
49 25 16
49 30 12
49 31 19
49 32 4
49 33 19
49 35 17
49 37 5
49 39 5
49 41 9
49 43 3
49 44 3
49 46 12
49 47 7
50 0 12
50 3 2
50 6 14
50 7 2
50 8 9
50 9 1
50 10 18
50 11 20
50 12 20
50 13 6
50 14 6
50 15 7
50 17 11
50 20 2
50 21 19
50 23 7
50 25 4
50 26 20
50 27 8
50 29 4
50 30 10
50 32 15
50 34 8
50 35 1
50 37 4
50 38 6
50 42 5
50 43 14
50 46 15
50 47 19
50 48 7
50 49 20
51 0 11
51 2 14
51 3 3
51 4 1
51 5 13
51 7 12
51 10 13
51 11 13
51 12 20
51 13 16
51 15 5
51 16 5
51 18 8
51 22 13
51 23 14
51 24 18
51 25 17
51 27 3
51 30 6
51 31 18
51 32 20
51 34 7
51 35 1
51 36 8
51 39 6
51 40 7
51 42 17
51 43 13
51 44 1
51 45 18
51 46 10
51 49 16
52 1 11
52 2 2
52 3 19
52 5 5
52 8 8
52 9 8
52 10 11
52 12 9
52 13 9
52 14 10
52 15 4
52 17 9
52 18 7
52 19 5
52 21 8
52 22 15
52 23 8
52 25 8
52 26 2
52 27 13
52 28 19
52 31 9
52 34 3
52 35 1
52 36 9
52 37 14
52 39 20
52 40 20
52 42 2
52 43 16
52 44 3
52 47 11
52 49 10
52 50 13
52 51 7
53 0 5
53 1 17
53 13 9
53 14 16
53 17 9
53 18 18
53 21 15
53 22 9
53 26 11
53 29 19
53 31 16
53 33 5
53 34 4
53 36 10
53 37 4
53 38 6
53 39 18
53 41 14
53 42 14
53 43 13
53 47 15
53 48 2
53 49 7
53 50 10
53 52 5
54 0 8
54 3 7
54 5 4
54 8 19
54 9 12
54 10 11
54 11 12
54 12 19
54 13 9
54 14 20
54 15 8
54 16 14
54 17 18
54 20 4
54 23 8
54 24 13
54 25 10
54 26 13
54 27 14
54 28 7
54 31 6
54 32 17
54 33 10
54 37 20
54 38 10
54 39 16
54 40 18
54 41 10
54 43 2
54 44 3
54 46 13
54 47 3
54 48 2
54 49 15
54 53 8
55 4 15
55 6 1
55 8 5
55 9 12
55 11 4
55 13 20
55 14 5
55 15 15
55 16 14
55 17 19
55 18 1
55 19 1
55 21 17
55 23 6
55 24 17
55 25 20
55 29 4
55 30 6
55 32 4
55 33 9
55 34 4
55 35 10
55 37 3
55 39 8
55 40 14
55 43 3
55 44 10
55 46 17
55 48 2
55 49 15
55 53 11
56 1 14
56 2 13
56 3 4
56 4 1
56 6 10
56 7 8
56 8 15
56 9 7
56 10 16
56 12 6
56 13 20
56 14 3
56 15 3
56 17 19
56 18 10
56 19 3
56 20 8
56 21 20
56 22 8
56 23 5
56 24 14
56 25 2
56 26 14
56 27 5
56 28 11
56 29 10
56 31 9
56 34 15
56 35 11
56 39 12
56 40 9
56 41 17
56 43 7
56 45 9
56 46 13
56 47 17
56 48 1
56 50 16
56 53 19
56 54 5
56 55 4
57 0 20
57 2 14
57 4 13
57 6 16
57 7 8
57 8 4
57 9 10
57 11 12
57 13 15
57 14 12
57 15 13
57 17 6
57 20 2
57 21 20
57 22 12
57 24 4
57 25 20
57 26 15
57 27 3
57 30 3
57 31 9
57 33 3
57 34 19
57 36 4
57 37 15
57 38 3
57 41 14
57 43 5
57 44 4
57 45 15
57 46 1
57 47 18
57 48 17
57 49 13
57 50 20
57 56 20
58 5 13
58 7 4
58 11 7
58 14 9
58 17 17
58 19 15
58 20 7
58 21 7
58 24 2
58 27 15
58 31 13
58 32 19
58 35 6
58 36 14
58 39 7
58 40 6
58 41 9
58 42 10
58 45 16
58 46 1
58 47 2
58 49 17
58 51 3
58 52 13
58 54 10
58 55 14
58 57 6
59 0 13
59 1 20
59 2 6
59 3 16
59 4 14
59 5 5
59 9 13
59 15 3
59 17 17
59 20 7
59 21 2
59 23 18
59 25 15
59 26 20
59 27 10
59 29 20
59 31 5
59 34 4
59 35 1
59 39 4
59 40 13
59 41 12
59 42 2
59 43 5
59 44 3
59 45 7
59 46 12
59 47 16
59 48 4
59 50 14
59 51 15
59 56 14
